NAME 
ROWS
 N  OBJ
 L  R0      
 L  R1      
 E  R2      
 E  R3      
 E  R4      
 E  R5      
 E  R6      
 E  R7      
 E  R8      
 E  R9      
 E  R10     
 E  R11     
COLUMNS
    MARKER    'MARKER'                 'INTORG'
    I0(8)     OBJ       -108
    I0(8)     R0        37
    I0(8)     R1        -137
    I0(8)     R2        11
    I0(8)     R3        19
    I0(8)     R4        -1
    I0(8)     R5        16
    I0(8)     R7        1
    I0(8)     R11       1
    I1(4)     OBJ       190
    I1(4)     R0        -127
    I1(4)     R1        161
    I1(4)     R3        15
    I1(4)     R11       1
    I2(5)     OBJ       111
    I2(5)     R0        -197
    I2(5)     R1        169
    I2(5)     R2        1
    I2(5)     R4        13
    I2(5)     R11       1
    I3(7)     OBJ       131
    I3(7)     R0        -186
    I3(7)     R1        -14
    I3(7)     R2        15
    I3(7)     R3        15
    I3(7)     R4        18
    I3(7)     R7        7
    I3(7)     R11       1
    I4(7)     OBJ       9
    I4(7)     R0        90
    I4(7)     R1        45
    I4(7)     R2        17
    I4(7)     R5        10
    I4(7)     R6        13
    I4(7)     R7        11
    I4(7)     R11       1
    I5(8)     OBJ       -17
    I5(8)     R0        192
    I5(8)     R1        17
    I5(8)     R2        11
    I5(8)     R3        15
    I5(8)     R5        12
    I5(8)     R6        6
    I5(8)     R7        3
    I5(8)     R11       1
    MARKER    'MARKER'                 'INTEND'
    C6(8)     OBJ       4
    C6(8)     R0        4
    C6(8)     R1        2
    C6(8)     R2        10
    C6(8)     R5        19
    C6(8)     R6        11
    C6(8)     R8        5
    C6(8)     R9        -1
    C6(8)     R10       14
    C7(8)     OBJ       9
    C7(8)     R0        7
    C7(8)     R1        -4
    C7(8)     R3        17
    C7(8)     R4        16
    C7(8)     R5        16
    C7(8)     R6        6
    C7(8)     R7        13
    C7(8)     R9        15
    C8(8)     OBJ       -2
    C8(8)     R0        -5
    C8(8)     R1        9
    C8(8)     R2        16
    C8(8)     R3        12
    C8(8)     R4        7
    C8(8)     R5        11
    C8(8)     R7        6
    C8(8)     R9        16
    C9(7)     OBJ       -2
    C9(7)     R0        -1
    C9(7)     R1        6
    C9(7)     R2        4
    C9(7)     R3        5
    C9(7)     R4        13
    C9(7)     R5        9
    C9(7)     R8        19
    C10(1)    R2        1
    C11(1)    R3        1
    C12(1)    R4        1
    C13(1)    R5        1
    C14(1)    R6        1
    C15(1)    R7        1
    C16(1)    R8        1
    C17(1)    R9        1
    C18(1)    R10       1
    C19(1)    R11       1
RHS
    RHS1      R0        70.4
    RHS1      R1        -252.4
    RHS1      R2        92
    RHS1      R3        56
    RHS1      R4        66
    RHS1      R5        65
    RHS1      R6        85
    RHS1      R7        67
    RHS1      R8        98
    RHS1      R9        77
    RHS1      R10       66
    RHS1      R11       2
BOUNDS
 UP BND1      I0(8)     2
 UP BND1      I1(4)     2
 UP BND1      I2(5)     2
 UP BND1      I3(7)     2
 UP BND1      I4(7)     2
 UP BND1      I5(8)     2
ENDATA
